instances/knapsack/discrete/knapsack_100_2.kp
53547
100
440

82 8.2 47
51 5.1 75
5 0.5 45
90 9.0 61
11 1.1 2
64 6.4 10
96 9.6 94
2 0.2 100
32 3.2 39
53 5.3 47
2 0.2 100
18 1.8 52
31 3.1 76
51 5.1 43
27 2.7 76
19 1.9 53
64 6.4 63
23 2.3 7
4 0.4 75
37 3.7 50
24 2.4 90
94 9.4 16
43 4.3 37
29 2.9 73
11 1.1 54
79 7.9 67
77 7.7 17
82 8.2 88
68 6.8 51
42 4.2 85
24 2.4 94
38 3.8 1
94 9.4 45
52 5.2 20
67 6.7 80
48 4.8 82
47 4.7 82
63 6.3 88
43 4.3 23
13 1.3 40
74 7.4 21
24 2.4 38
49 4.9 46
40 4.0 12
82 8.2 71
1 0.1 80
80 8.0 5
40 4.0 13
50 5.0 5
63 6.3 26
77 7.7 12
71 7.1 47
24 2.4 72
47 4.7 6
19 1.9 77
46 4.6 23
72 7.2 87
49 4.9 89
95 9.5 93
5 0.5 88
91 9.1 85
33 3.3 11
10 1.0 18
53 5.3 6
62 6.2 59
39 3.9 98
55 5.5 58
17 1.7 14
27 2.7 89
36 3.6 54
88 8.8 10
24 2.4 72
9 0.9 78
78 7.8 90
22 2.2 19
3 0.3 51
61 6.1 87
42 4.2 38
71 7.1 89
29 2.9 12
84 8.4 64
24 2.4 39
81 8.1 26
4 0.4 83
8 0.8 66
72 7.2 93
46 4.6 35
27 2.7 84
73 7.3 89
66 6.6 75
51 5.1 7
15 1.5 82
55 5.5 26
70 7.0 89
59 5.9 57
40 4.0 15
52 5.2 90
35 3.5 77
47 4.7 61
63 6.3 41

68160
477

[4.21 4.33 1.08 1.59 2.29 0.49 3.07 3.26 3.44 3.96 0.85 1.76 3.42 3.87 1.54 0.15 1.29 4.52 1.91 4.74 1.54 0.76 4.32 2.29 1.75 4.07 4.15 0.0 2.55 1.09 0.91 0.65 2.74 2.52 1.95 4.46 1.46 3.52 3.52 2.29 0.97 4.24 0.64 4.51 1.29 0.53 2.98 1.81 1.91 0.58 2.91 3.78 0.78 2.25 2.91 2.56 1.99 1.66 4.32 4.01 0.31 1.74 3.76 1.13 1.31 0.82 2.92 2.68 0.02 4.46 3.0 2.75 3.41 4.59 3.74 2.5 0.7 4.58 2.88 3.22 3.45 3.56 2.53 3.15 1.77 0.48 1.81 0.75 3.47 2.21 3.56 0.67 2.53 0.91 1.95 0.75 0.12 3.13 2.87 2.02]

[23 43 5 90 11 41 72 47 100 49 87 90 11 87 4 12 100 83 68 37 44 43 11 46 48 63 17 79 25 38 65 59 67 44 87 72 91 12 23 42 98 65 69 65 2 42 93 53 78 11 94 15 40 95 92 3 32 90 27 13 24 78 15 54 63 3 8 26 79 49 33 93 89 58 75 40 26 70 20 30 73 25 66 25 29 13 31 31 89 98 36 76 44 35 47 32 16 88 71 43]
