instances/knapsack/discrete_knapsack_uncertainty/knapsack_100_2.lp
\ Model knapsack_100_2
\ LP format - for model browsing. Use MPS format to capture full model detail.
\ Signature: 0x98b4e0718ea0846a
Minimize
  - 34 x[0] - 75 x[1] - 16 x[2] - 8 x[3] - 66 x[4] - 85 x[5] - 66 x[6]
   - 76 x[7] - 75 x[8] - 67 x[9] - 39 x[10] - 79 x[11] - 71 x[12]
   - 22 x[13] - 31 x[14] - 8 x[15] - 62 x[16] - 18 x[17] - 87 x[18]
   - 50 x[19] - 66 x[20] - 95 x[21] - 56 x[22] - 40 x[23] - x[24]
   - 63 x[25] - 56 x[26] - 68 x[27] - 10 x[28] - 65 x[29] - 85 x[30]
   - 88 x[31] - 76 x[32] - 31 x[33] - 28 x[34] - 61 x[35] - 5 x[36]
   - 3 x[37] - 43 x[38] - 48 x[39] - 76 x[40] - 94 x[41] - 66 x[42]
   - 67 x[43] - 79 x[44] - 23 x[45] - 69 x[46] - 41 x[47] - 45 x[48]
   - 98 x[49] - 83 x[50] - 83 x[51] - 67 x[52] - 9 x[53] - 48 x[54]
   - 86 x[55] - 99 x[56] - 20 x[57] - 12 x[58] - 83 x[59] - 36 x[60]
   - 46 x[61] - 34 x[62] - 6 x[63] - 7 x[64] - 69 x[65] - 53 x[66]
   - 14 x[67] - x[68] - 18 x[69] - 37 x[70] - 23 x[71] - x[72] - 6 x[73]
   - 95 x[74] - 18 x[75] - 26 x[76] - 9 x[77] - 56 x[78] - 60 x[79]
   - 27 x[80] - 30 x[81] - 82 x[82] - 70 x[83] - 9 x[84] - 49 x[85]
   - 18 x[86] - 47 x[87] - 52 x[88] - 35 x[89] - 66 x[90] - 18 x[91]
   - 42 x[92] - 13 x[93] - 60 x[94] - 27 x[95] - 49 x[96] - 40 x[97]
   - 77 x[98] - 65 x[99]
Subject To
 primal_upper: 60 x[0] + 84 x[1] + 94 x[2] + 11 x[3] + 64 x[4] + 70 x[5]
   + 37 x[6] + 84 x[7] + 29 x[8] + 54 x[9] + 32 x[10] + 99 x[11] + 96 x[12]
   + 76 x[13] + 73 x[14] + 69 x[15] + 49 x[16] + 100 x[17] + 77 x[18]
   + 30 x[19] + 53 x[20] + 24 x[21] + 100 x[22] + 7 x[23] + 5 x[24]
   + 72 x[25] + 78 x[26] + 60 x[27] + 82 x[28] + 55 x[29] + 78 x[30]
   + 76 x[31] + 100 x[32] + 57 x[33] + 40 x[34] + 77 x[35] + 80 x[36]
   + 13 x[37] + 32 x[38] + 87 x[39] + 39 x[40] + 26 x[41] + 42 x[42]
   + 50 x[43] + 19 x[44] + 51 x[45] + 86 x[46] + 70 x[47] + 55 x[48]
   + 12 x[49] + 11 x[50] + 92 x[51] + 65 x[52] + 16 x[53] + 25 x[54]
   + 44 x[55] + 45 x[56] + 67 x[57] + 96 x[58] + 74 x[59] + 85 x[60]
   + 35 x[61] + 92 x[62] + 79 x[63] + 40 x[64] + 60 x[65] + 97 x[66]
   + 79 x[67] + 64 x[68] + 14 x[69] + 86 x[70] + 78 x[71] + 94 x[72]
   + 11 x[73] + 88 x[74] + 81 x[75] + 43 x[76] + 55 x[77] + 9 x[78]
   + 91 x[79] + 18 x[80] + 86 x[81] + 67 x[82] + 82 x[83] + 94 x[84]
   + 54 x[85] + 92 x[86] + 32 x[87] + 54 x[88] + 23 x[89] + 17 x[90]
   + 49 x[91] + 65 x[92] + 8 x[93] + 24 x[94] + 33 x[95] + 89 x[96]
   + 17 x[97] + 4 x[98] + 20 x[99] + 6 r[0] + 8.4 r[1] + 9.4 r[2]
   + 1.1 r[3] + 6.4 r[4] + 7 r[5] + 3.7 r[6] + 8.4 r[7] + 2.9 r[8]
   + 5.4 r[9] + 3.2 r[10] + 9.9 r[11] + 9.6 r[12] + 7.6 r[13] + 7.3 r[14]
   + 6.9 r[15] + 4.9 r[16] + 10 r[17] + 7.7 r[18] + 3 r[19] + 5.3 r[20]
   + 2.4 r[21] + 10 r[22] + 0.7 r[23] + 0.5 r[24] + 7.2 r[25] + 7.8 r[26]
   + 6 r[27] + 8.2 r[28] + 5.5 r[29] + 7.8 r[30] + 7.6 r[31] + 10 r[32]
   + 5.7 r[33] + 4 r[34] + 7.7 r[35] + 8 r[36] + 1.3 r[37] + 3.2 r[38]
   + 8.7 r[39] + 3.9 r[40] + 2.6 r[41] + 4.2 r[42] + 5 r[43] + 1.9 r[44]
   + 5.1 r[45] + 8.6 r[46] + 7 r[47] + 5.5 r[48] + 1.2 r[49] + 1.1 r[50]
   + 9.2 r[51] + 6.5 r[52] + 1.6 r[53] + 2.5 r[54] + 4.4 r[55] + 4.5 r[56]
   + 6.7 r[57] + 9.6 r[58] + 7.4 r[59] + 8.5 r[60] + 3.5 r[61] + 9.2 r[62]
   + 7.9 r[63] + 4 r[64] + 6 r[65] + 9.7 r[66] + 7.9 r[67] + 6.4 r[68]
   + 1.4 r[69] + 8.6 r[70] + 7.8 r[71] + 9.4 r[72] + 1.1 r[73] + 8.8 r[74]
   + 8.1 r[75] + 4.3 r[76] + 5.5 r[77] + 0.9 r[78] + 9.1 r[79] + 1.8 r[80]
   + 8.6 r[81] + 6.7 r[82] + 8.2 r[83] + 9.4 r[84] + 5.4 r[85] + 9.2 r[86]
   + 3.2 r[87] + 5.4 r[88] + 2.3 r[89] + 1.7 r[90] + 4.9 r[91] + 6.5 r[92]
   + 0.8 r[93] + 2.4 r[94] + 3.3 r[95] + 8.9 r[96] + 1.7 r[97] + 0.4 r[98]
   + 2 r[99] <= 538
 primal_lower: 2.669539104059917 x[0] + 1.710813727778941 x[1]
   + 2.823052142717462 x[2] + 2.465322376496744 x[3]
   + 1.976950953198954 x[4] + 1.03280498668899 x[5]
   + 3.553559040566238 x[6] + 0.9051612725154971 x[7]
   + 2.095549411118712 x[8] + 1.032738679624349 x[9]
   + 3.875730273956918 x[10] + 3.905156894526497 x[11]
   + 2.84601538895539 x[12] + 2.581642886946029 x[13]
   + 4.055954315045449 x[14] + 3.690241061120587 x[15]
   + 0.28405439678094 x[16] + 3.981605839346497 x[17]
   + 1.678141044249446 x[18] + 3.469794211777877 x[19]
   + 4.829665119336356 x[20] + 0.5630511173833611 x[21]
   + 0.4752148124976869 x[22] + 0.1810836589912282 x[23]
   + 1.617889180653799 x[24] + 2.684509110647312 x[25]
   + 3.911760840677459 x[26] + 1.447385834979253 x[27]
   + 1.329543383829876 x[28] + 2.025496075840831 x[29]
   + 3.499305450598319 x[30] + 2.853013768290597 x[31]
   + 0.8566776151325448 x[32] + 0.5774941292476824 x[33]
   + 1.204477250539436 x[34] + 0.3690697156713036 x[35]
   + 1.46134136357159 x[36] + 2.562407806019116 x[37]
   + 2.953888173747005 x[38] + 3.651698703929979 x[39]
   + 0.8189464138585295 x[40] + 1.869803740366169 x[41]
   + 4.39752091563889 x[42] + 1.25460734544219 x[43]
   + 4.049201488957928 x[44] + 0.081256854526778 x[45]
   + 0.191443208133632 x[46] + 1.257763972797239 x[47]
   + 3.5876177389255 x[48] + 1.102208061550937 x[49]
   + 3.605036508055291 x[50] + 3.80066427955914 x[51]
   + 4.398660237117323 x[52] + 3.437405717082908 x[53]
   + 2.604702207803843 x[54] + 2.175912606512432 x[55]
   + 3.678244345320747 x[56] + 3.048562390788911 x[57]
   + 0.2496862379836871 x[58] + 4.609215133721512 x[59]
   + 0.5763495922167797 x[60] + 2.607538393946985 x[61]
   + 4.083341727329396 x[62] + 3.232877489861296 x[63]
   + 3.527052759761957 x[64] + 3.362237907855657 x[65]
   + 2.064324960910906 x[66] + 3.884697633240666 x[67]
   + 2.160485430386874 x[68] + 4.008693131558861 x[69]
   + 0.5145301695325109 x[70] + 3.580483261883004 x[71]
   + 1.059869142749676 x[72] + 2.578237550623155 x[73]
   + 2.679879536919336 x[74] + 3.164533652780104 x[75]
   + 4.593900972424794 x[76] + 3.631186942396494 x[77]
   + 0.00150336135339132 x[78] + 2.225507856244475 x[79]
   + 2.557734747965112 x[80] + 2.435323718060808 x[81]
   + 3.126935615135336 x[82] + 0.7788044054340459 x[83]
   + 2.936458284169855 x[84] + 4.085105641045107 x[85]
   + 1.669102493574535 x[86] + 1.408653596547275 x[87]
   + 4.155822761968698 x[88] + 3.79047710500362 x[89]
   + 4.829567067579062 x[90] + 0.1452338998524519 x[91]
   + 0.77368767517723 x[92] + 1.510666443711275 x[93]
   + 0.0049936891929091 x[94] + 2.067386217725264 x[95]
   + 2.291225804289711 x[96] + 3.47390080437068 x[97]
   + 3.737650979718794 x[98] + 0.4532387917298784 x[99] + 78 u[0] + 22 u[1]
   + 88 u[2] + 25 u[3] + 86 u[4] + 44 u[5] + 71 u[6] + 50 u[7] + 63 u[8]
   + 44 u[9] + 18 u[10] + 81 u[11] + 6 u[12] + 30 u[13] + 31 u[14]
   + 91 u[15] + 35 u[16] + 2 u[17] + 31 u[18] + 64 u[19] + 75 u[20]
   + 38 u[21] + 22 u[22] + 17 u[23] + 71 u[24] + 6 u[25] + 12 u[26]
   + 62 u[27] + 100 u[28] + 13 u[29] + 92 u[30] + 66 u[31] + 26 u[32]
   + 75 u[33] + 38 u[34] + 51 u[35] + 38 u[36] + 27 u[37] + 54 u[38]
   + 9 u[39] + 33 u[40] + 44 u[41] + 24 u[42] + 48 u[43] + 85 u[44]
   + 29 u[45] + 4 u[46] + 76 u[47] + 17 u[48] + 70 u[49] + 17 u[50]
   + 50 u[51] + 91 u[52] + 90 u[53] + 95 u[54] + 46 u[55] + 43 u[56]
   + 45 u[57] + 74 u[58] + 76 u[59] + 87 u[60] + 61 u[61] + 46 u[62]
   + 57 u[63] + 14 u[64] + 18 u[65] + 23 u[66] + 13 u[67] + 98 u[68]
   + 64 u[69] + 48 u[70] + 80 u[71] + 60 u[72] + 65 u[73] + 14 u[74]
   + 27 u[75] + 41 u[76] + 77 u[77] + 39 u[78] + 29 u[79] + 52 u[80]
   + 68 u[81] + 97 u[82] + 80 u[83] + 4 u[84] + 56 u[85] + 54 u[86]
   + 6 u[87] + 92 u[88] + 89 u[89] + 47 u[90] + 99 u[91] + 67 u[92]
   + 94 u[93] + 78 u[94] + 51 u[95] + 83 u[96] + 75 u[97] + 54 u[98]
   + 6 u[99] <= 62190
 mccormick1[0]: - u[0] + r[0] <= 0
 mccormick1[1]: - u[1] + r[1] <= 0
 mccormick1[2]: - u[2] + r[2] <= 0
 mccormick1[3]: - u[3] + r[3] <= 0
 mccormick1[4]: - u[4] + r[4] <= 0
 mccormick1[5]: - u[5] + r[5] <= 0
 mccormick1[6]: - u[6] + r[6] <= 0
 mccormick1[7]: - u[7] + r[7] <= 0
 mccormick1[8]: - u[8] + r[8] <= 0
 mccormick1[9]: - u[9] + r[9] <= 0
 mccormick1[10]: - u[10] + r[10] <= 0
 mccormick1[11]: - u[11] + r[11] <= 0
 mccormick1[12]: - u[12] + r[12] <= 0
 mccormick1[13]: - u[13] + r[13] <= 0
 mccormick1[14]: - u[14] + r[14] <= 0
 mccormick1[15]: - u[15] + r[15] <= 0
 mccormick1[16]: - u[16] + r[16] <= 0
 mccormick1[17]: - u[17] + r[17] <= 0
 mccormick1[18]: - u[18] + r[18] <= 0
 mccormick1[19]: - u[19] + r[19] <= 0
 mccormick1[20]: - u[20] + r[20] <= 0
 mccormick1[21]: - u[21] + r[21] <= 0
 mccormick1[22]: - u[22] + r[22] <= 0
 mccormick1[23]: - u[23] + r[23] <= 0
 mccormick1[24]: - u[24] + r[24] <= 0
 mccormick1[25]: - u[25] + r[25] <= 0
 mccormick1[26]: - u[26] + r[26] <= 0
 mccormick1[27]: - u[27] + r[27] <= 0
 mccormick1[28]: - u[28] + r[28] <= 0
 mccormick1[29]: - u[29] + r[29] <= 0
 mccormick1[30]: - u[30] + r[30] <= 0
 mccormick1[31]: - u[31] + r[31] <= 0
 mccormick1[32]: - u[32] + r[32] <= 0
 mccormick1[33]: - u[33] + r[33] <= 0
 mccormick1[34]: - u[34] + r[34] <= 0
 mccormick1[35]: - u[35] + r[35] <= 0
 mccormick1[36]: - u[36] + r[36] <= 0
 mccormick1[37]: - u[37] + r[37] <= 0
 mccormick1[38]: - u[38] + r[38] <= 0
 mccormick1[39]: - u[39] + r[39] <= 0
 mccormick1[40]: - u[40] + r[40] <= 0
 mccormick1[41]: - u[41] + r[41] <= 0
 mccormick1[42]: - u[42] + r[42] <= 0
 mccormick1[43]: - u[43] + r[43] <= 0
 mccormick1[44]: - u[44] + r[44] <= 0
 mccormick1[45]: - u[45] + r[45] <= 0
 mccormick1[46]: - u[46] + r[46] <= 0
 mccormick1[47]: - u[47] + r[47] <= 0
 mccormick1[48]: - u[48] + r[48] <= 0
 mccormick1[49]: - u[49] + r[49] <= 0
 mccormick1[50]: - u[50] + r[50] <= 0
 mccormick1[51]: - u[51] + r[51] <= 0
 mccormick1[52]: - u[52] + r[52] <= 0
 mccormick1[53]: - u[53] + r[53] <= 0
 mccormick1[54]: - u[54] + r[54] <= 0
 mccormick1[55]: - u[55] + r[55] <= 0
 mccormick1[56]: - u[56] + r[56] <= 0
 mccormick1[57]: - u[57] + r[57] <= 0
 mccormick1[58]: - u[58] + r[58] <= 0
 mccormick1[59]: - u[59] + r[59] <= 0
 mccormick1[60]: - u[60] + r[60] <= 0
 mccormick1[61]: - u[61] + r[61] <= 0
 mccormick1[62]: - u[62] + r[62] <= 0
 mccormick1[63]: - u[63] + r[63] <= 0
 mccormick1[64]: - u[64] + r[64] <= 0
 mccormick1[65]: - u[65] + r[65] <= 0
 mccormick1[66]: - u[66] + r[66] <= 0
 mccormick1[67]: - u[67] + r[67] <= 0
 mccormick1[68]: - u[68] + r[68] <= 0
 mccormick1[69]: - u[69] + r[69] <= 0
 mccormick1[70]: - u[70] + r[70] <= 0
 mccormick1[71]: - u[71] + r[71] <= 0
 mccormick1[72]: - u[72] + r[72] <= 0
 mccormick1[73]: - u[73] + r[73] <= 0
 mccormick1[74]: - u[74] + r[74] <= 0
 mccormick1[75]: - u[75] + r[75] <= 0
 mccormick1[76]: - u[76] + r[76] <= 0
 mccormick1[77]: - u[77] + r[77] <= 0
 mccormick1[78]: - u[78] + r[78] <= 0
 mccormick1[79]: - u[79] + r[79] <= 0
 mccormick1[80]: - u[80] + r[80] <= 0
 mccormick1[81]: - u[81] + r[81] <= 0
 mccormick1[82]: - u[82] + r[82] <= 0
 mccormick1[83]: - u[83] + r[83] <= 0
 mccormick1[84]: - u[84] + r[84] <= 0
 mccormick1[85]: - u[85] + r[85] <= 0
 mccormick1[86]: - u[86] + r[86] <= 0
 mccormick1[87]: - u[87] + r[87] <= 0
 mccormick1[88]: - u[88] + r[88] <= 0
 mccormick1[89]: - u[89] + r[89] <= 0
 mccormick1[90]: - u[90] + r[90] <= 0
 mccormick1[91]: - u[91] + r[91] <= 0
 mccormick1[92]: - u[92] + r[92] <= 0
 mccormick1[93]: - u[93] + r[93] <= 0
 mccormick1[94]: - u[94] + r[94] <= 0
 mccormick1[95]: - u[95] + r[95] <= 0
 mccormick1[96]: - u[96] + r[96] <= 0
 mccormick1[97]: - u[97] + r[97] <= 0
 mccormick1[98]: - u[98] + r[98] <= 0
 mccormick1[99]: - u[99] + r[99] <= 0
 mccormick2[0]: - x[0] + r[0] <= 0
 mccormick2[1]: - x[1] + r[1] <= 0
 mccormick2[2]: - x[2] + r[2] <= 0
 mccormick2[3]: - x[3] + r[3] <= 0
 mccormick2[4]: - x[4] + r[4] <= 0
 mccormick2[5]: - x[5] + r[5] <= 0
 mccormick2[6]: - x[6] + r[6] <= 0
 mccormick2[7]: - x[7] + r[7] <= 0
 mccormick2[8]: - x[8] + r[8] <= 0
 mccormick2[9]: - x[9] + r[9] <= 0
 mccormick2[10]: - x[10] + r[10] <= 0
 mccormick2[11]: - x[11] + r[11] <= 0
 mccormick2[12]: - x[12] + r[12] <= 0
 mccormick2[13]: - x[13] + r[13] <= 0
 mccormick2[14]: - x[14] + r[14] <= 0
 mccormick2[15]: - x[15] + r[15] <= 0
 mccormick2[16]: - x[16] + r[16] <= 0
 mccormick2[17]: - x[17] + r[17] <= 0
 mccormick2[18]: - x[18] + r[18] <= 0
 mccormick2[19]: - x[19] + r[19] <= 0
 mccormick2[20]: - x[20] + r[20] <= 0
 mccormick2[21]: - x[21] + r[21] <= 0
 mccormick2[22]: - x[22] + r[22] <= 0
 mccormick2[23]: - x[23] + r[23] <= 0
 mccormick2[24]: - x[24] + r[24] <= 0
 mccormick2[25]: - x[25] + r[25] <= 0
 mccormick2[26]: - x[26] + r[26] <= 0
 mccormick2[27]: - x[27] + r[27] <= 0
 mccormick2[28]: - x[28] + r[28] <= 0
 mccormick2[29]: - x[29] + r[29] <= 0
 mccormick2[30]: - x[30] + r[30] <= 0
 mccormick2[31]: - x[31] + r[31] <= 0
 mccormick2[32]: - x[32] + r[32] <= 0
 mccormick2[33]: - x[33] + r[33] <= 0
 mccormick2[34]: - x[34] + r[34] <= 0
 mccormick2[35]: - x[35] + r[35] <= 0
 mccormick2[36]: - x[36] + r[36] <= 0
 mccormick2[37]: - x[37] + r[37] <= 0
 mccormick2[38]: - x[38] + r[38] <= 0
 mccormick2[39]: - x[39] + r[39] <= 0
 mccormick2[40]: - x[40] + r[40] <= 0
 mccormick2[41]: - x[41] + r[41] <= 0
 mccormick2[42]: - x[42] + r[42] <= 0
 mccormick2[43]: - x[43] + r[43] <= 0
 mccormick2[44]: - x[44] + r[44] <= 0
 mccormick2[45]: - x[45] + r[45] <= 0
 mccormick2[46]: - x[46] + r[46] <= 0
 mccormick2[47]: - x[47] + r[47] <= 0
 mccormick2[48]: - x[48] + r[48] <= 0
 mccormick2[49]: - x[49] + r[49] <= 0
 mccormick2[50]: - x[50] + r[50] <= 0
 mccormick2[51]: - x[51] + r[51] <= 0
 mccormick2[52]: - x[52] + r[52] <= 0
 mccormick2[53]: - x[53] + r[53] <= 0
 mccormick2[54]: - x[54] + r[54] <= 0
 mccormick2[55]: - x[55] + r[55] <= 0
 mccormick2[56]: - x[56] + r[56] <= 0
 mccormick2[57]: - x[57] + r[57] <= 0
 mccormick2[58]: - x[58] + r[58] <= 0
 mccormick2[59]: - x[59] + r[59] <= 0
 mccormick2[60]: - x[60] + r[60] <= 0
 mccormick2[61]: - x[61] + r[61] <= 0
 mccormick2[62]: - x[62] + r[62] <= 0
 mccormick2[63]: - x[63] + r[63] <= 0
 mccormick2[64]: - x[64] + r[64] <= 0
 mccormick2[65]: - x[65] + r[65] <= 0
 mccormick2[66]: - x[66] + r[66] <= 0
 mccormick2[67]: - x[67] + r[67] <= 0
 mccormick2[68]: - x[68] + r[68] <= 0
 mccormick2[69]: - x[69] + r[69] <= 0
 mccormick2[70]: - x[70] + r[70] <= 0
 mccormick2[71]: - x[71] + r[71] <= 0
 mccormick2[72]: - x[72] + r[72] <= 0
 mccormick2[73]: - x[73] + r[73] <= 0
 mccormick2[74]: - x[74] + r[74] <= 0
 mccormick2[75]: - x[75] + r[75] <= 0
 mccormick2[76]: - x[76] + r[76] <= 0
 mccormick2[77]: - x[77] + r[77] <= 0
 mccormick2[78]: - x[78] + r[78] <= 0
 mccormick2[79]: - x[79] + r[79] <= 0
 mccormick2[80]: - x[80] + r[80] <= 0
 mccormick2[81]: - x[81] + r[81] <= 0
 mccormick2[82]: - x[82] + r[82] <= 0
 mccormick2[83]: - x[83] + r[83] <= 0
 mccormick2[84]: - x[84] + r[84] <= 0
 mccormick2[85]: - x[85] + r[85] <= 0
 mccormick2[86]: - x[86] + r[86] <= 0
 mccormick2[87]: - x[87] + r[87] <= 0
 mccormick2[88]: - x[88] + r[88] <= 0
 mccormick2[89]: - x[89] + r[89] <= 0
 mccormick2[90]: - x[90] + r[90] <= 0
 mccormick2[91]: - x[91] + r[91] <= 0
 mccormick2[92]: - x[92] + r[92] <= 0
 mccormick2[93]: - x[93] + r[93] <= 0
 mccormick2[94]: - x[94] + r[94] <= 0
 mccormick2[95]: - x[95] + r[95] <= 0
 mccormick2[96]: - x[96] + r[96] <= 0
 mccormick2[97]: - x[97] + r[97] <= 0
 mccormick2[98]: - x[98] + r[98] <= 0
 mccormick2[99]: - x[99] + r[99] <= 0
 mccormick3[0]: x[0] + u[0] - r[0] <= 1
 mccormick3[1]: x[1] + u[1] - r[1] <= 1
 mccormick3[2]: x[2] + u[2] - r[2] <= 1
 mccormick3[3]: x[3] + u[3] - r[3] <= 1
 mccormick3[4]: x[4] + u[4] - r[4] <= 1
 mccormick3[5]: x[5] + u[5] - r[5] <= 1
 mccormick3[6]: x[6] + u[6] - r[6] <= 1
 mccormick3[7]: x[7] + u[7] - r[7] <= 1
 mccormick3[8]: x[8] + u[8] - r[8] <= 1
 mccormick3[9]: x[9] + u[9] - r[9] <= 1
 mccormick3[10]: x[10] + u[10] - r[10] <= 1
 mccormick3[11]: x[11] + u[11] - r[11] <= 1
 mccormick3[12]: x[12] + u[12] - r[12] <= 1
 mccormick3[13]: x[13] + u[13] - r[13] <= 1
 mccormick3[14]: x[14] + u[14] - r[14] <= 1
 mccormick3[15]: x[15] + u[15] - r[15] <= 1
 mccormick3[16]: x[16] + u[16] - r[16] <= 1
 mccormick3[17]: x[17] + u[17] - r[17] <= 1
 mccormick3[18]: x[18] + u[18] - r[18] <= 1
 mccormick3[19]: x[19] + u[19] - r[19] <= 1
 mccormick3[20]: x[20] + u[20] - r[20] <= 1
 mccormick3[21]: x[21] + u[21] - r[21] <= 1
 mccormick3[22]: x[22] + u[22] - r[22] <= 1
 mccormick3[23]: x[23] + u[23] - r[23] <= 1
 mccormick3[24]: x[24] + u[24] - r[24] <= 1
 mccormick3[25]: x[25] + u[25] - r[25] <= 1
 mccormick3[26]: x[26] + u[26] - r[26] <= 1
 mccormick3[27]: x[27] + u[27] - r[27] <= 1
 mccormick3[28]: x[28] + u[28] - r[28] <= 1
 mccormick3[29]: x[29] + u[29] - r[29] <= 1
 mccormick3[30]: x[30] + u[30] - r[30] <= 1
 mccormick3[31]: x[31] + u[31] - r[31] <= 1
 mccormick3[32]: x[32] + u[32] - r[32] <= 1
 mccormick3[33]: x[33] + u[33] - r[33] <= 1
 mccormick3[34]: x[34] + u[34] - r[34] <= 1
 mccormick3[35]: x[35] + u[35] - r[35] <= 1
 mccormick3[36]: x[36] + u[36] - r[36] <= 1
 mccormick3[37]: x[37] + u[37] - r[37] <= 1
 mccormick3[38]: x[38] + u[38] - r[38] <= 1
 mccormick3[39]: x[39] + u[39] - r[39] <= 1
 mccormick3[40]: x[40] + u[40] - r[40] <= 1
 mccormick3[41]: x[41] + u[41] - r[41] <= 1
 mccormick3[42]: x[42] + u[42] - r[42] <= 1
 mccormick3[43]: x[43] + u[43] - r[43] <= 1
 mccormick3[44]: x[44] + u[44] - r[44] <= 1
 mccormick3[45]: x[45] + u[45] - r[45] <= 1
 mccormick3[46]: x[46] + u[46] - r[46] <= 1
 mccormick3[47]: x[47] + u[47] - r[47] <= 1
 mccormick3[48]: x[48] + u[48] - r[48] <= 1
 mccormick3[49]: x[49] + u[49] - r[49] <= 1
 mccormick3[50]: x[50] + u[50] - r[50] <= 1
 mccormick3[51]: x[51] + u[51] - r[51] <= 1
 mccormick3[52]: x[52] + u[52] - r[52] <= 1
 mccormick3[53]: x[53] + u[53] - r[53] <= 1
 mccormick3[54]: x[54] + u[54] - r[54] <= 1
 mccormick3[55]: x[55] + u[55] - r[55] <= 1
 mccormick3[56]: x[56] + u[56] - r[56] <= 1
 mccormick3[57]: x[57] + u[57] - r[57] <= 1
 mccormick3[58]: x[58] + u[58] - r[58] <= 1
 mccormick3[59]: x[59] + u[59] - r[59] <= 1
 mccormick3[60]: x[60] + u[60] - r[60] <= 1
 mccormick3[61]: x[61] + u[61] - r[61] <= 1
 mccormick3[62]: x[62] + u[62] - r[62] <= 1
 mccormick3[63]: x[63] + u[63] - r[63] <= 1
 mccormick3[64]: x[64] + u[64] - r[64] <= 1
 mccormick3[65]: x[65] + u[65] - r[65] <= 1
 mccormick3[66]: x[66] + u[66] - r[66] <= 1
 mccormick3[67]: x[67] + u[67] - r[67] <= 1
 mccormick3[68]: x[68] + u[68] - r[68] <= 1
 mccormick3[69]: x[69] + u[69] - r[69] <= 1
 mccormick3[70]: x[70] + u[70] - r[70] <= 1
 mccormick3[71]: x[71] + u[71] - r[71] <= 1
 mccormick3[72]: x[72] + u[72] - r[72] <= 1
 mccormick3[73]: x[73] + u[73] - r[73] <= 1
 mccormick3[74]: x[74] + u[74] - r[74] <= 1
 mccormick3[75]: x[75] + u[75] - r[75] <= 1
 mccormick3[76]: x[76] + u[76] - r[76] <= 1
 mccormick3[77]: x[77] + u[77] - r[77] <= 1
 mccormick3[78]: x[78] + u[78] - r[78] <= 1
 mccormick3[79]: x[79] + u[79] - r[79] <= 1
 mccormick3[80]: x[80] + u[80] - r[80] <= 1
 mccormick3[81]: x[81] + u[81] - r[81] <= 1
 mccormick3[82]: x[82] + u[82] - r[82] <= 1
 mccormick3[83]: x[83] + u[83] - r[83] <= 1
 mccormick3[84]: x[84] + u[84] - r[84] <= 1
 mccormick3[85]: x[85] + u[85] - r[85] <= 1
 mccormick3[86]: x[86] + u[86] - r[86] <= 1
 mccormick3[87]: x[87] + u[87] - r[87] <= 1
 mccormick3[88]: x[88] + u[88] - r[88] <= 1
 mccormick3[89]: x[89] + u[89] - r[89] <= 1
 mccormick3[90]: x[90] + u[90] - r[90] <= 1
 mccormick3[91]: x[91] + u[91] - r[91] <= 1
 mccormick3[92]: x[92] + u[92] - r[92] <= 1
 mccormick3[93]: x[93] + u[93] - r[93] <= 1
 mccormick3[94]: x[94] + u[94] - r[94] <= 1
 mccormick3[95]: x[95] + u[95] - r[95] <= 1
 mccormick3[96]: x[96] + u[96] - r[96] <= 1
 mccormick3[97]: x[97] + u[97] - r[97] <= 1
 mccormick3[98]: x[98] + u[98] - r[98] <= 1
 mccormick3[99]: x[99] + u[99] - r[99] <= 1
Bounds
Binaries
 x[0] x[1] x[2] x[3] x[4] x[5] x[6] x[7] x[8] x[9] x[10] x[11] x[12] x[13]
 x[14] x[15] x[16] x[17] x[18] x[19] x[20] x[21] x[22] x[23] x[24] x[25]
 x[26] x[27] x[28] x[29] x[30] x[31] x[32] x[33] x[34] x[35] x[36] x[37]
 x[38] x[39] x[40] x[41] x[42] x[43] x[44] x[45] x[46] x[47] x[48] x[49]
 x[50] x[51] x[52] x[53] x[54] x[55] x[56] x[57] x[58] x[59] x[60] x[61]
 x[62] x[63] x[64] x[65] x[66] x[67] x[68] x[69] x[70] x[71] x[72] x[73]
 x[74] x[75] x[76] x[77] x[78] x[79] x[80] x[81] x[82] x[83] x[84] x[85]
 x[86] x[87] x[88] x[89] x[90] x[91] x[92] x[93] x[94] x[95] x[96] x[97]
 x[98] x[99] u[0] u[1] u[2] u[3] u[4] u[5] u[6] u[7] u[8] u[9] u[10] u[11]
 u[12] u[13] u[14] u[15] u[16] u[17] u[18] u[19] u[20] u[21] u[22] u[23]
 u[24] u[25] u[26] u[27] u[28] u[29] u[30] u[31] u[32] u[33] u[34] u[35]
 u[36] u[37] u[38] u[39] u[40] u[41] u[42] u[43] u[44] u[45] u[46] u[47]
 u[48] u[49] u[50] u[51] u[52] u[53] u[54] u[55] u[56] u[57] u[58] u[59]
 u[60] u[61] u[62] u[63] u[64] u[65] u[66] u[67] u[68] u[69] u[70] u[71]
 u[72] u[73] u[74] u[75] u[76] u[77] u[78] u[79] u[80] u[81] u[82] u[83]
 u[84] u[85] u[86] u[87] u[88] u[89] u[90] u[91] u[92] u[93] u[94] u[95]
 u[96] u[97] u[98] u[99] r[0] r[1] r[2] r[3] r[4] r[5] r[6] r[7] r[8] r[9]
 r[10] r[11] r[12] r[13] r[14] r[15] r[16] r[17] r[18] r[19] r[20] r[21]
 r[22] r[23] r[24] r[25] r[26] r[27] r[28] r[29] r[30] r[31] r[32] r[33]
 r[34] r[35] r[36] r[37] r[38] r[39] r[40] r[41] r[42] r[43] r[44] r[45]
 r[46] r[47] r[48] r[49] r[50] r[51] r[52] r[53] r[54] r[55] r[56] r[57]
 r[58] r[59] r[60] r[61] r[62] r[63] r[64] r[65] r[66] r[67] r[68] r[69]
 r[70] r[71] r[72] r[73] r[74] r[75] r[76] r[77] r[78] r[79] r[80] r[81]
 r[82] r[83] r[84] r[85] r[86] r[87] r[88] r[89] r[90] r[91] r[92] r[93]
 r[94] r[95] r[96] r[97] r[98] r[99]
End
